Rodando pra 1h

Optimize a model with 154 rows, 140 columns and 1934 nonzeros
Coefficient statistics:
  Matrix range    [1e+00, 1e+04]
  Objective range [2e-01, 2e-01]
  Bounds range    [1e+00, 1e+04]
  RHS range       [1e+00, 1e+04]
Found heuristic solution: objective 223.5
Presolve removed 24 rows and 4 columns
Presolve time: 0.00s
Presolved: 130 rows, 136 columns, 1522 nonzeros
Variable types: 20 continuous, 116 integer (110 binary)

Root relaxation: objective 0.000000e+00, 51 iterations, 0.00 seconds

    Nodes    |    Current Node    |     Objective Bounds      |     Work
 Expl Unexpl |  Obj  Depth IntInf | Incumbent    BestBd   Gap | It/Node Time

     0     0    0.00000    0   31  223.50045    0.00000   100%     -    0s
H    0     0                     209.0004180    0.00000   100%     -    0s
     0     0    1.60092    0   44  209.00042    1.60092  99.2%     -    0s
H    0     0                     206.0004120    1.60092  99.2%     -    0s
     0     0    1.60842    0   44  206.00041    1.60842  99.2%     -    0s
     0     0    2.63504    0   49  206.00041    2.63504  98.7%     -    0s
H    0     0                     186.0003720    2.63504  98.6%     -    0s
H    0     0                     170.3336740    2.63504  98.5%     -    0s
     0     0    5.32824    0   48  170.33367    5.32824  96.9%     -    0s
     0     0    7.87552    0   51  170.33367    7.87552  95.4%     -    0s
H    0     0                     160.0003200    7.87552  95.1%     -    0s
H    0     0                     159.5003190    7.87552  95.1%     -    0s
     0     0    8.73692    0   50  159.50032    8.73692  94.5%     -    0s
     0     0   11.58115    0   57  159.50032   11.58115  92.7%     -    0s
     0     0   12.18530    0   61  159.50032   12.18530  92.4%     -    0s
     0     0   12.48435    0   61  159.50032   12.48435  92.2%     -    0s
     0     0   12.49541    0   58  159.50032   12.49541  92.2%     -    0s
     0     0   13.57761    0   54  159.50032   13.57761  91.5%     -    0s
     0     0   13.60863    0   59  159.50032   13.60863  91.5%     -    0s
     0     0   15.61170    0   59  159.50032   15.61170  90.2%     -    0s
     0     0   16.64409    0   67  159.50032   16.64409  89.6%     -    0s
     0     0   17.11967    0   68  159.50032   17.11967  89.3%     -    0s
     0     0   17.60619    0   70  159.50032   17.60619  89.0%     -    0s
     0     0   21.05841    0   75  159.50032   21.05841  86.8%     -    0s
     0     0   21.65046    0   68  159.50032   21.65046  86.4%     -    0s
     0     0   22.25340    0   76  159.50032   22.25340  86.0%     -    0s
     0     0   22.38431    0   77  159.50032   22.38431  86.0%     -    0s
     0     0   23.56269    0   67  159.50032   23.56269  85.2%     -    0s
     0     0   24.04078    0   68  159.50032   24.04078  84.9%     -    0s
     0     0   24.29448    0   71  159.50032   24.29448  84.8%     -    0s
     0     0   24.49219    0   72  159.50032   24.49219  84.6%     -    0s
     0     0   24.56390    0   71  159.50032   24.56390  84.6%     -    0s
     0     0   24.56390    0   71  159.50032   24.56390  84.6%     -    0s
     0     2   24.66264    0   71  159.50032   24.66264  84.5%     -    0s
H   82    67                     149.3336320   25.01451  83.2%   9.8    0s
H  553   332                     149.0002980   36.77105  75.3%   8.3    1s
H 1221   333                     148.8336310   65.22317  56.2%  15.8    2s
* 1342   302              42     144.8336230   69.58248  52.0%  15.3    2s
* 3976   443              43     142.6669520  120.33357  15.7%  11.4    4s
  4538   380  131.33360   35   13  142.66695  127.16692  10.9%  11.0    5s

Cutting planes:
  Gomory: 7
  MIR: 152
  Flow cover: 155
  Flow path: 7
  Zero half: 1
  Network: 9

Explored 5784 nodes (57356 simplex iterations) in 5.80 seconds
Thread count was 1 (of 4 available processors)

Optimal solution found (tolerance 1.00e-04)
Best objective 1.426669520000e+02, best bound 1.426669520000e+02, gap 0.0%
Tempo: 5.63 segundos

0 2 0 56 76 17 79 26 30 26 71 6 
0 3 22 70 30 55 6 40 78 10 32 42 
1 3 0 76 0 78 14 12 64 42 12 6 
1 4 72 36 15 48 32 49 71 20 20 90 
(94 238 121 198 131 127 243 98 135 144 )

